# Solution for model r3_t27_m5_4 Batch Number: 4
# Finished Task: 25 / 27
# Makespan: 866.0, Total Distance: 773.0, Total Time: 9.7535
# R O S F Batch
0 0 6 0.0 0.0 -1
1 1 20 0.0 0.0 -1
2 2 12 0.0 0.0 -1
3 0 26 544.0 579.0 2
4 0 25 272.0 304.0 0
5 1 23 762.0 796.0 3
6 0 13 116.0 148.0 0
7 -1 -1 -1.0 -1.0 1
8 2 -1 662.0 699.0 3
9 2 11 551.0 582.0 1
10 0 19 446.0 479.0 2
11 2 8 603.0 641.0 2
12 2 29 255.0 293.0 0
13 0 4 199.0 235.0 0
14 2 24 420.0 446.0 0
15 0 10 397.0 418.0 0
16 1 5 699.0 721.0 3
17 1 -1 836.0 866.0 3
18 1 22 211.0 234.0 0
19 0 3 504.0 531.0 2
20 1 18 153.0 187.0 0
21 -1 -1 -1.0 -1.0 1
22 1 27 320.0 359.0 0
23 1 17 808.0 836.0 3
24 2 9 475.0 506.0 1
25 0 15 330.0 364.0 0
26 0 -1 615.0 644.0 3
27 1 28 359.0 387.0 1
28 1 16 641.0 675.0 2
29 2 14 348.0 377.0 0
